# Solution for model p01_budget_0p170
# Objective value = 1.7000000000006227e-01
Risk 1.7000000000006227e-01
0 0
1 0
3 0.001
4 30.001
5 3.0002000000000002e+01
6 40.002
7 3.7974833094690553e+01
9 7.9895300561337848e+01
c(0,1)_Rl 0.001
c(0,1)_Ru 0
c(0,3)_Rl 0
c(0,3)_Ru 0
c(3,4)_Rl 0
c(3,4)_Ru 0
c(4,5)_Rl 0
c(4,5)_Ru 0
c(3,5)_Rl 0
c(3,5)_Ru 0
c(1,2)_l 0
c(1,2)_u 3.7973833094690555e+01
c(2,7)_Fl 0
c(2,7)_Fu 1.1072356773971004e-01
c(1,7)_Rl 0
c(1,7)_Ru 0
c(5,6)_Rl 0
c(5,6)_Ru 0
c(3,6)_Rl 0
c(3,6)_Ru 0
c(7,8)_l 0
c(7,8)_u 4.1919467466647291e+01
c(1,8)_Fl 0
c(1,8)_Fu 2.9638216130176087e-02
c(0,9)_Rl 0
c(0,9)_Ru 4.3894700561337849e+01
c(8,9)_Fl 0
c(8,9)_Fu 2.9638216130176143e-02
c(6,9)_Rl 0
c(6,9)_Ru 0
Cost 4.3895700561337847e+01
